data/solutions/recovery/degenerate/intermediate/binding/degenerate_intermediate_instance38/22.sol
Elapsed time: 0.05
Upper bound: 308994.0
Planning weighted value: 14181458665.0
C[0]=308994.0
C[1]=307157.0
C[2]=304758.0
C[3]=302227.0
C[4]=301823.0
C[5]=300748.0
C[6]=298338.0
C[7]=290773.0
C[8]=286245.0
C[9]=276801.0
C[10]=271894.0
C[11]=268166.0
C[12]=266494.0
C[13]=0.0
C[14]=0.0
C[15]=0.0
y[0]=10
y[1]=8
y[2]=5
y[3]=3
y[4]=11
y[5]=4
y[6]=9
y[7]=10
y[8]=5
y[9]=3
y[10]=6
y[11]=1
y[12]=3
y[13]=11
y[14]=10
y[15]=11
y[16]=1
y[17]=3
y[18]=1
y[19]=4
y[20]=2
y[21]=3
y[22]=6
y[23]=7
y[24]=3
y[25]=8
y[26]=12
y[27]=9
y[28]=5
y[29]=10
y[30]=1
y[31]=4
y[32]=0
y[33]=11
y[34]=6
y[35]=7
y[36]=2
y[37]=12
y[38]=5
y[39]=0
y[40]=11
y[41]=10
y[42]=7
y[43]=6
y[44]=7
y[45]=8
y[46]=2
y[47]=8
y[48]=0
y[49]=7
y[50]=1
y[51]=9
y[52]=5
y[53]=12
y[54]=7
y[55]=12
y[56]=2
y[57]=9
y[58]=6
y[59]=12
y[60]=6
y[61]=0
y[62]=8
y[63]=4
y[64]=4
y[65]=2
