data/solutions/recovery/degenerate/intermediate/binding/degenerate_intermediate_instance38/22.log

Log started (V12.6.3.0) Sun Apr 22 12:34:45 2018

New value for default parallel thread count: 1

Problem '/tmp/tmpcreLJY.pyomo.lp' read.
Read time = 0.01 sec. (0.70 ticks)

Problem name         : /tmp/tmpcreLJY.pyomo.lp
Objective sense      : Minimize
Variables            :    1074  [Nneg: 1,  Binary: 1056,  General Integer: 17]
Objective nonzeros   :       1
Linear constraints   :     168  [Less: 82,  Equal: 86]
  Nonzeros           :   49863
  RHS nonzeros       :      67

Variables            : Min LB: 0.000000         Max UB: 1.000000       
Objective nonzeros   : Min   : 1.000000         Max   : 1.000000       
Linear constraints   :
  Nonzeros           : Min   : 1.000000         Max   : 117484.0       
  RHS nonzeros       : Min   : 1.000000         Max   : 1.000000       
Tried aggregator 2 times.
MIP Presolve eliminated 124 rows and 826 columns.
Aggregator did 13 substitutions.
Reduced MIP has 31 rows, 235 columns, and 481 nonzeros.
Reduced MIP has 234 binaries, 1 generals, 0 SOSs, and 0 indicators.
Presolve time = 0.00 sec. (3.90 ticks)
Found incumbent of value 1291567.000000 after 0.00 sec. (5.18 ticks)
Probing time = 0.00 sec. (0.32 ticks)
Cover probing fixed 0 vars, tightened 3 bounds.
Tried aggregator 1 time.
Reduced MIP has 31 rows, 235 columns, and 481 nonzeros.
Reduced MIP has 234 binaries, 1 generals, 0 SOSs, and 0 indicators.
Presolve time = 0.00 sec. (0.42 ticks)
Probing time = 0.00 sec. (0.31 ticks)
Clique table members: 18.
MIP emphasis: balance optimality and feasibility.
MIP search method: dynamic search.
Parallel mode: none, using 1 thread.
Root relaxation solution time = 0.00 sec. (0.45 ticks)

        Nodes                                         Cuts/
   Node  Left     Objective  IInf  Best Integer    Best Bound    ItCnt     Gap

*     0+    0                      1291567.0000   258183.0000            80.01%
      0     0   291109.0769    22  1291567.0000   291109.0769       67   77.46%
*     0+    0                       331082.0000   291109.0769            12.07%
      0     0   291110.0000    22   331082.0000      Cuts: 11      105   12.07%
*     0+    0                       325645.0000   291110.0000            10.61%
      0     0   291110.0000    28   325645.0000      Cuts: 30      175   10.61%
*     0+    0                       325391.0000   291110.0000            10.54%
*     0+    0                       323744.0000   291110.0000            10.08%
*     0+    0                       323742.0000   291110.0000            10.08%
*     0+    0                       322061.0000   291110.0000             9.61%
*     0+    0                       319669.0000   291110.0000             8.93%
*     0+    0                       317082.0000   291110.0000             8.19%
      0     2   291110.0000    24   317082.0000   291110.0000      175    8.19%
Elapsed time = 0.02 sec. (15.53 ticks, tree = 0.01 MB, solutions = 8)
*    10+    6                       311300.0000   291110.0000             6.49%
*    10+    6                       311163.0000   291110.0000             6.44%
*    15    11      integral     0   310134.0000   291110.0000      269    6.13%
*    19    11      integral     0   310065.0000   291110.0000      287    6.11%
*    20+    1                       308994.0000   291110.0000             5.79%

Implied bound cuts applied:  1
Mixed integer rounding cuts applied:  5
Lift and project cuts applied:  1
Gomory fractional cuts applied:  2

Root node processing (before b&c):
  Real time             =    0.02 sec. (15.62 ticks)
Sequential b&c:
  Real time             =    0.00 sec. (1.61 ticks)
                          ------------
Total (root+branch&cut) =    0.02 sec. (17.23 ticks)

Solution pool: 13 solutions saved.

MIP - Integer optimal solution:  Objective =  3.0899400000e+05
Solution time =    0.02 sec.  Iterations = 290  Nodes = 22
Deterministic time = 17.23 ticks  (936.85 ticks/sec)


Incumbent solution written to file '/tmp/tmpXOMvxL.cplex.sol'.
